projected/problems_b25_r0_d7_m100_s666/_DIMACS/b25_d7_r0_s666_024.cnf
p cnf 171 235 25
c p show 1 2 3 4 5 6 7 8 9 10 11 12 13 14 15 16 17 18 19 20 21 22 23 24 25
-26 -23 -8 0
-27 13 5 0
-28 27 26 0
-29 15 -2 0
-30 17 0
-30 -8 0
-31 30 0
-31 29 0
-32 -17 8 0
-33 -15 0
-33 2 0
-34 33 0
-34 32 0
-35 34 31 0
-36 35 0
-36 28 0
-37 -9 0
-37 -18 0
-38 21 25 0
-39 38 0
-39 37 0
-40 -14 -6 0
-41 -23 0
-41 6 0
-42 41 40 0
-43 42 0
-43 39 0
-44 43 0
-44 36 0
-45 5 -17 0
-46 20 2 0
-47 46 45 0
-48 10 0
-48 -14 0
-49 -23 15 0
-50 49 0
-50 48 0
-51 50 0
-51 47 0
-52 4 0
-52 -16 0
-53 -9 23 0
-54 53 0
-54 52 0
-55 25 0
-55 -13 0
-56 -21 0
-56 10 0
-57 56 0
-57 55 0
-58 57 0
-58 54 0
-59 58 51 0
-60 59 0
-60 44 0
-61 -9 0
-61 6 0
-62 -11 0
-62 12 0
-63 62 0
-63 61 0
-64 -4 0
-64 8 0
-65 20 11 0
-66 65 0
-66 64 0
-67 66 63 0
-68 6 0
-68 -25 0
-69 -2 23 0
-70 69 0
-70 68 0
-71 6 3 0
-72 -3 -6 0
-73 72 0
-73 71 0
-74 13 2 0
-75 -2 -13 0
-76 75 0
-76 74 0
-77 76 0
-77 73 0
-78 77 0
-78 70 0
-79 78 67 0
-80 -24 0
-80 -8 0
-81 10 -19 0
-82 81 80 0
-83 19 0
-83 7 0
-84 -9 9 0
-85 84 0
-85 83 0
-86 85 82 0
-87 13 0
-88 7 -10 0
-89 88 0
-89 87 0
-90 -18 -2 0
-91 25 -17 0
-92 91 0
-92 90 0
-93 92 0
-93 89 0
-94 93 0
-94 86 0
-95 94 0
-95 79 0
-96 95 60 0
-97 2 9 0
-98 12 -10 0
-99 98 97 0
-100 -12 0
-100 10 0
-101 -2 0
-101 -9 0
-102 101 100 0
-103 102 0
-103 99 0
-104 -18 0
-104 6 0
-105 4 0
-105 -8 0
-106 105 0
-106 104 0
-107 106 103 0
-108 3 -21 0
-109 -19 7 0
-110 109 0
-110 108 0
-111 16 0
-111 3 0
-112 -3 0
-112 -16 0
-113 112 111 0
-114 -6 0
-114 -20 0
-115 114 113 0
-116 6 20 0
-117 -16 -3 0
-118 3 16 0
-119 118 0
-119 117 0
-120 119 116 0
-121 120 0
-121 115 0
-122 121 110 0
-123 122 0
-123 107 0
-124 -3 0
-124 -23 0
-125 11 12 0
-126 125 0
-126 124 0
-127 -18 -24 0
-128 -16 0
-128 5 0
-129 128 0
-129 127 0
-130 129 0
-130 126 0
-131 2 0
-131 -25 0
-132 -22 0
-132 -23 0
-133 132 131 0
-134 19 0
-134 -7 0
-135 -25 0
-135 8 0
-136 135 134 0
-137 136 0
-137 133 0
-138 137 0
-138 130 0
-139 138 0
-139 123 0
-140 -25 17 0
-141 -6 -20 0
-142 141 140 0
-143 -23 4 0
-144 -7 0
-144 -13 0
-145 144 143 0
-146 145 142 0
-147 -7 10 0
-148 18 -5 0
-149 148 0
-149 147 0
-150 -7 -10 0
-151 -8 -2 0
-152 151 0
-152 150 0
-153 152 0
-153 149 0
-154 153 0
-154 146 0
-155 2 21 0
-156 2 0
-156 19 0
-157 156 155 0
-158 8 0
-158 -4 0
-159 13 23 0
-160 159 0
-160 158 0
-161 160 0
-161 157 0
-162 -14 6 0
-163 2 3 0
-164 163 162 0
-165 -24 0
-165 11 0
-166 1 0
-166 -16 0
-167 166 165 0
-168 167 164 0
-169 168 0
-169 161 0
-170 169 0
-170 154 0
-171 170 0
-171 139 0
171 96 0
-32 -30 0
-30 -32 0
-29 -33 0
-33 -29 0
-100 -98 0
-101 -97 0
-97 -101 0
-116 -114 0
-119 -113 0
-113 -119 0
