projected/problems_b25_r0_d7_m100_s666/b25_d7_r0_s666_024.smt2
(set-logic QF_UF)
(declare-fun A0 () Bool)
(declare-fun A1 () Bool)
(declare-fun A2 () Bool)
(declare-fun A3 () Bool)
(declare-fun A4 () Bool)
(declare-fun A5 () Bool)
(declare-fun A6 () Bool)
(declare-fun A7 () Bool)
(declare-fun A8 () Bool)
(declare-fun A9 () Bool)
(declare-fun A10 () Bool)
(declare-fun A11 () Bool)
(declare-fun A12 () Bool)
(declare-fun A13 () Bool)
(declare-fun A14 () Bool)
(declare-fun A15 () Bool)
(declare-fun A16 () Bool)
(declare-fun A17 () Bool)
(declare-fun A18 () Bool)
(declare-fun A19 () Bool)
(declare-fun A20 () Bool)
(declare-fun A21 () Bool)
(declare-fun A22 () Bool)
(declare-fun A23 () Bool)
(declare-fun A24 () Bool)
(assert (let ((.def_0 (and A22 A7))) (let ((.def_1 (not A4))) (let ((.def_2 (not A12))) (let ((.def_3 (and .def_2 .def_1))) (let ((.def_4 (and .def_3 .def_0))) (let ((.def_5 (not .def_4))) (let ((.def_6 (not A16))) (let ((.def_7 (or .def_6 A7))) (let ((.def_8 (not .def_7))) (let ((.def_9 (not A1))) (let ((.def_10 (or A14 .def_9))) (let ((.def_11 (not .def_10))) (let ((.def_12 (= .def_11 .def_8))) (let ((.def_13 (not .def_12))) (let ((.def_14 (and .def_13 .def_5))) (let ((.def_15 (not .def_14))) (let ((.def_16 (not A17))) (let ((.def_17 (not A8))) (let ((.def_18 (and .def_17 .def_16))) (let ((.def_19 (not A24))) (let ((.def_20 (not A20))) (let ((.def_21 (and .def_20 .def_19))) (let ((.def_22 (not .def_21))) (let ((.def_23 (and .def_22 .def_18))) (let ((.def_24 (not A5))) (let ((.def_25 (not A13))) (let ((.def_26 (or .def_25 .def_24))) (let ((.def_27 (or A22 .def_24))) (let ((.def_28 (not .def_27))) (let ((.def_29 (or .def_28 .def_26))) (let ((.def_30 (and .def_29 .def_23))) (let ((.def_31 (not .def_30))) (let ((.def_32 (or .def_31 .def_15))) (let ((.def_33 (not .def_32))) (let ((.def_34 (and .def_1 A16))) (let ((.def_35 (or A19 A1))) (let ((.def_36 (not .def_35))) (let ((.def_37 (and .def_36 .def_34))) (let ((.def_38 (not .def_37))) (let ((.def_39 (not A9))) (let ((.def_40 (or .def_39 A13))) (let ((.def_41 (not .def_40))) (let ((.def_42 (not A14))) (let ((.def_43 (and A22 .def_42))) (let ((.def_44 (not .def_43))) (let ((.def_45 (and .def_44 .def_41))) (let ((.def_46 (and .def_45 .def_38))) (let ((.def_47 (not .def_46))) (let ((.def_48 (not A3))) (let ((.def_49 (or .def_48 A15))) (let ((.def_50 (not .def_49))) (let ((.def_51 (or .def_17 A22))) (let ((.def_52 (and .def_51 .def_50))) (let ((.def_53 (not .def_52))) (let ((.def_54 (or .def_19 A12))) (let ((.def_55 (and .def_20 A9))) (let ((.def_56 (not .def_55))) (let ((.def_57 (or .def_56 .def_54))) (let ((.def_58 (or .def_57 .def_53))) (let ((.def_59 (and .def_58 .def_47))) (let ((.def_60 (not .def_59))) (let ((.def_61 (and .def_60 .def_33))) (let ((.def_62 (not .def_61))) (let ((.def_63 (or A8 .def_24))) (let ((.def_64 (not .def_63))) (let ((.def_65 (not A11))) (let ((.def_66 (or A10 .def_65))) (let ((.def_67 (not .def_66))) (let ((.def_68 (and .def_67 .def_64))) (let ((.def_69 (not A7))) (let ((.def_70 (or A3 .def_69))) (let ((.def_71 (not .def_70))) (let ((.def_72 (or A19 A10))) (let ((.def_73 (and .def_72 .def_71))) (let ((.def_74 (or .def_73 .def_68))) (let ((.def_75 (not .def_74))) (let ((.def_76 (and A5 .def_19))) (let ((.def_77 (not .def_76))) (let ((.def_78 (or .def_9 A22))) (let ((.def_79 (not .def_78))) (let ((.def_80 (or .def_79 .def_77))) (let ((.def_81 (= A2 .def_24))) (let ((.def_82 (= A1 .def_2))) (let ((.def_83 (and .def_82 .def_81))) (let ((.def_84 (not .def_83))) (let ((.def_85 (or .def_84 .def_80))) (let ((.def_86 (and .def_85 .def_75))) (let ((.def_87 (not .def_86))) (let ((.def_88 (not A23))) (let ((.def_89 (and .def_88 .def_69))) (let ((.def_90 (not .def_89))) (let ((.def_91 (and .def_39 A18))) (let ((.def_92 (and .def_91 .def_90))) (let ((.def_93 (not A6))) (let ((.def_94 (not A18))) (let ((.def_95 (or .def_94 .def_93))) (let ((.def_96 (or .def_17 A8))) (let ((.def_97 (not .def_96))) (let ((.def_98 (or .def_97 .def_95))) (let ((.def_99 (and .def_98 .def_92))) (let ((.def_100 (or A12 A12))) (let ((.def_101 (not .def_100))) (let ((.def_102 (or A6 .def_39))) (let ((.def_103 (not .def_102))) (let ((.def_104 (or .def_103 .def_101))) (let ((.def_105 (not .def_104))) (let ((.def_106 (and A17 A1))) (let ((.def_107 (not .def_106))) (let ((.def_108 (or A24 .def_6))) (let ((.def_109 (and .def_108 .def_107))) (let ((.def_110 (and .def_109 .def_105))) (let ((.def_111 (not .def_110))) (let ((.def_112 (or .def_111 .def_99))) (let ((.def_113 (not .def_112))) (let ((.def_114 (and .def_113 .def_87))) (let ((.def_115 (not .def_114))) (let ((.def_116 (and .def_115 .def_62))) (let ((.def_117 (and .def_65 A9))) (let ((.def_118 (and .def_9 .def_17))) (let ((.def_119 (not .def_118))) (let ((.def_120 (= .def_119 .def_117))) (let ((.def_121 (and .def_16 A5))) (let ((.def_122 (not .def_121))) (let ((.def_123 (and A3 .def_69))) (let ((.def_124 (not .def_123))) (let ((.def_125 (or .def_124 .def_122))) (let ((.def_126 (not .def_125))) (let ((.def_127 (or .def_126 .def_120))) (let ((.def_128 (not A2))) (let ((.def_129 (and .def_128 A20))) (let ((.def_130 (not .def_129))) (let ((.def_131 (or .def_94 A6))) (let ((.def_132 (and .def_131 .def_130))) (let ((.def_133 (not .def_132))) (let ((.def_134 (or A5 A19))) (let ((.def_135 (= .def_128 A15))) (let ((.def_136 (not .def_135))) (let ((.def_137 (= .def_136 .def_134))) (let ((.def_138 (not .def_137))) (let ((.def_139 (and .def_138 .def_133))) (let ((.def_140 (not .def_139))) (let ((.def_141 (and .def_140 .def_127))) (let ((.def_142 (not A22))) (let ((.def_143 (and .def_128 .def_142))) (let ((.def_144 (not .def_143))) (let ((.def_145 (or A10 A11))) (let ((.def_146 (not .def_145))) (let ((.def_147 (or .def_146 .def_144))) (let ((.def_148 (or .def_16 .def_88))) (let ((.def_149 (or A15 .def_1))) (let ((.def_150 (not .def_149))) (let ((.def_151 (and .def_150 .def_148))) (let ((.def_152 (not .def_151))) (let ((.def_153 (or .def_152 .def_147))) (let ((.def_154 (and A1 .def_19))) (let ((.def_155 (not A21))) (let ((.def_156 (and .def_155 .def_142))) (let ((.def_157 (or .def_156 .def_154))) (let ((.def_158 (and A18 .def_93))) (let ((.def_159 (not .def_158))) (let ((.def_160 (or A24 .def_69))) (let ((.def_161 (and .def_160 .def_159))) (let ((.def_162 (not .def_161))) (let ((.def_163 (and .def_162 .def_157))) (let ((.def_164 (not .def_163))) (let ((.def_165 (or .def_164 .def_153))) (let ((.def_166 (not .def_165))) (let ((.def_167 (and .def_166 .def_141))) (let ((.def_168 (not .def_167))) (let ((.def_169 (or .def_19 A16))) (let ((.def_170 (not A19))) (let ((.def_171 (or .def_24 .def_170))) (let ((.def_172 (or .def_171 .def_169))) (let ((.def_173 (or .def_142 A3))) (let ((.def_174 (or A6 A12))) (let ((.def_175 (not .def_174))) (let ((.def_176 (or .def_175 .def_173))) (let ((.def_177 (or .def_176 .def_172))) (let ((.def_178 (not .def_177))) (let ((.def_179 (or .def_93 A9))) (let ((.def_180 (not .def_179))) (let ((.def_181 (and .def_16 A4))) (let ((.def_182 (or .def_181 .def_180))) (let ((.def_183 (not .def_182))) (let ((.def_184 (or .def_93 .def_39))) (let ((.def_185 (and A7 A1))) (let ((.def_186 (not .def_185))) (let ((.def_187 (and .def_186 .def_184))) (let ((.def_188 (and .def_187 .def_183))) (let ((.def_189 (not .def_188))) (let ((.def_190 (or .def_189 .def_178))) (let ((.def_191 (not .def_190))) (let ((.def_192 (or A1 A20))) (let ((.def_193 (not .def_192))) (let ((.def_194 (and A1 A18))) (let ((.def_195 (not .def_194))) (let ((.def_196 (and .def_195 .def_193))) (let ((.def_197 (or .def_69 A3))) (let ((.def_198 (not .def_197))) (let ((.def_199 (and .def_2 .def_142))) (let ((.def_200 (not .def_199))) (let ((.def_201 (and .def_200 .def_198))) (let ((.def_202 (not .def_201))) (let ((.def_203 (or .def_202 .def_196))) (let ((.def_204 (not .def_203))) (let ((.def_205 (and A13 .def_24))) (let ((.def_206 (not .def_205))) (let ((.def_207 (or A1 A2))) (let ((.def_208 (or .def_207 .def_206))) (let ((.def_209 (not .def_208))) (let ((.def_210 (not A10))) (let ((.def_211 (or A23 .def_210))) (let ((.def_212 (not .def_211))) (let ((.def_213 (not A15))) (let ((.def_214 (and A0 .def_213))) (let ((.def_215 (or .def_214 .def_212))) (let ((.def_216 (not .def_215))) (let ((.def_217 (and .def_216 .def_209))) (let ((.def_218 (not .def_217))) (let ((.def_219 (and .def_218 .def_204))) (let ((.def_220 (and .def_219 .def_191))) (let ((.def_221 (not .def_220))) (let ((.def_222 (or .def_221 .def_168))) (let ((.def_223 (and .def_222 .def_116))) (let ((.def_224 (not .def_223))) .def_224))))))))))))))))))))))))))))))))))))))))))))))))))))))))))))))))))))))))))))))))))))))))))))))))))))))))))))))))))))))))))))))))))))))))))))))))))))))))))))))))))))))))))))))))))))))))))))))))))))))))))))))))))))))))))))))))))
(check-sat)
